Version identifier: 22.1.1.0 | 2022-11-28 | 9160aff4d
CPXPARAM_ClockType                               1
CPXPARAM_Read_DataCheck                          1
CPXPARAM_Threads                                 1
CPXPARAM_TimeLimit                               7200
CPXPARAM_MIP_Tolerances_AbsMIPGap                0
CPXPARAM_MIP_Tolerances_MIPGap                   0
CPXPARAM_MIP_Tolerances_Integrality              0
Tried aggregator 2 times.
MIP Presolve eliminated 45683 rows and 51517 columns.
MIP Presolve modified 17418 coefficients.
Aggregator did 2302 substitutions.
Reduced MIP has 5492 rows, 4931 columns, and 20315 nonzeros.
Reduced MIP has 4254 binaries, 677 generals, 0 SOSs, and 0 indicators.
Presolve time = 0.10 sec. (63.72 ticks)
Found incumbent of value 0.000000 after 0.11 sec. (75.19 ticks)
Probing time = 0.02 sec. (4.73 ticks)
Tried aggregator 1 time.
Detecting symmetries...
MIP Presolve eliminated 72 rows and 165 columns.
MIP Presolve modified 4 coefficients.
Reduced MIP has 5420 rows, 4766 columns, and 20095 nonzeros.
Reduced MIP has 4125 binaries, 641 generals, 0 SOSs, and 0 indicators.
Presolve time = 0.05 sec. (35.56 ticks)
Probing time = 0.01 sec. (2.98 ticks)
Clique table members: 4671.
MIP emphasis: balance optimality and feasibility.
MIP search method: dynamic search.
Parallel mode: none, using 1 thread.
Root relaxation solution time = 0.04 sec. (26.44 ticks)

        Nodes                                         Cuts/
   Node  Left     Objective  IInf  Best Integer    Best Bound    ItCnt     Gap

*     0+    0                          899.0000     1130.0000            25.70%
      0     0     1127.0000   416      899.0000     1127.0000      871   25.36%
      0     0     1118.0000   145      899.0000      Cuts: 78      963   24.36%
      0     0     1118.0000   185      899.0000      Cuts: 58     1087   24.36%
      0     0     1118.0000   190      899.0000  ZeroHalf: 71     1143   24.36%
*     0+    0                         1118.0000     1118.0000             0.00%
      0     0        cutoff           1118.0000     1118.0000     1143    0.00%
      0     0        cutoff           1118.0000     1118.0000     1143    0.00%
Elapsed time = 0.74 sec. (562.40 ticks, tree = 0.01 MB, solutions = 4)

Clique cuts applied:  36
Zero-half cuts applied:  79
Gomory fractional cuts applied:  6

Root node processing (before b&c):
  Real time             =    0.74 sec. (565.24 ticks)
Sequential b&c:
  Real time             =    0.00 sec. (0.00 ticks)
                          ------------
Total (root+branch&cut) =    0.74 sec. (565.24 ticks)
Solution is feasible.

---------------------
@@@ MIP_optimal
>>> Benchmark mc2024_track1_015.cnf k 2 OPT 1118 TimeCost 35.436938524246216 TimeSolve 0.7687938213348389 TimeRead 0.013653993606567383 TimeTrans 34.65449070930481
